NAME:30_15
TYPE: TSP
DIMENSION: 30
EDGE_WEIGHT_TYPE: EXPLICIT
EDGE_WEIGHT_FORMAT: UPPER_ROW
EDGE_WEIGHT_SECTION
648 648 648 648 648 648 648 648 648 648 648 648 648 648 0 227 279 216 261 288 247 243 239 235 235 231 231 231 227 648 648 648 648 648 648 648 648 648 648 648 648 648 281 0 304 245 254 281 236 232 228 224 224 220 220 220 216 648 648 648 648 648 648 648 648 648 648 648 648 261 236 0 261 234 261 220 220 220 220 224 224 228 232 232 648 648 648 648 648 648 648 648 648 648 648 252 263 279 0 261 324 283 279 275 271 271 267 267 267 263 648 648 648 648 648 648 648 648 648 648 243 218 306 243 0 279 238 234 230 226 226 222 222 222 218 648 648 648 648 648 648 648 648 648 252 263 243 216 261 0 247 247 247 247 251 251 255 259 259 648 648 648 648 648 648 648 648 261 232 300 261 234 297 0 216 216 216 220 220 224 228 228 648 648 648 648 648 648 648 265 232 300 261 238 297 220 0 216 216 220 220 224 228 228 648 648 648 648 648 648 269 232 300 261 242 297 224 220 0 216 220 220 224 228 228 648 648 648 648 648 273 232 300 261 246 297 228 224 220 0 220 220 224 228 228 648 648 648 648 273 228 296 257 246 293 228 224 220 216 0 216 220 224 224 648 648 648 277 228 300 257 250 293 232 228 224 220 220 0 220 224 224 648 648 277 224 300 253 250 289 232 228 224 220 220 216 0 220 220 648 277 220 300 249 250 285 232 228 224 220 220 216 216 0 216 281 220 304 249 254 285 236 232 228 224 224 220 220 220 0 648 648 648 648 648 648 648 648 648 648 648 648 648 648 648 648 648 648 648 648 648 648 648 648 648 648 648 648 648 648 648 648 648 648 648 648 648 648 648 648 648 648 648 648 648 648 648 648 648 648 648 648 648 648 648 648 648 648 648 648 648 648 648 648 648 648 648 648 648 648 648 648 648 648 648 648 648 648 648 648 648 648 648 648 648 648 648 648 648 648 648 648 648 648 648 648 648 648 648 648 648 648 648 648 648 